
Gurobi 8.0.1 (mac64, Matlab) logging started Tue Aug  4 20:05:29 2020


Gurobi 8.0.1 (mac64, Matlab) logging started Tue Aug  4 20:05:33 2020


Gurobi 8.0.1 (mac64, Matlab) logging started Tue Aug  4 20:05:34 2020


Gurobi 8.0.1 (mac64, Matlab) logging started Tue Aug  4 20:59:21 2020


Gurobi 8.0.1 (mac64, Matlab) logging started Tue Aug  4 20:59:25 2020


Gurobi 8.0.1 (mac64, Matlab) logging started Tue Aug  4 20:59:29 2020

